(declare-const |K:34:35| Int)
(declare-const havoc Int)
(declare-const |x':30:36| Int)
(declare-const |havoc:2| Int)
(assert (and (< (+ (- |havoc:2|) havoc) 0)
               (or (not (<= (- |K:34:35|) 0))
                     (= (+ |x':30:36| (- |K:34:35|) (- havoc)) 0))
               (or (and (= |K:34:35| 0) (= (+ (- |x':30:36|) havoc) 0))
                     (and (<= (+ (- |K:34:35|) 1) 0)
                            (<= (+ (- |havoc:2|) havoc 1) 0)
                            (<= (+ |x':30:36| (- |havoc:2|)) 0)))
               (<= (- |K:34:35|) 0) (<= (+ (- |x':30:36|) |havoc:2|) 0)
               (not (= (+ |x':30:36| (- |havoc:2|)) 0))))
(check-sat)
